\ENCODING=ISO-8859-1
\Problem name: ilog.cplex

Minimize
 obj1: 91746 x1 + 99433 x2 + 93213 x3 + 97089 x4 + 101071 x5 + 96971 x6
       + 91150 x7 + 101926 x8 + 108004 x9 + 97697 x10 + 105808 x11 + 101733 x12
       + 103582 x13 + 101862 x14 + 99593 x15 + 92379 x16 + 102827 x17
       + 101022 x18 + 109903 x19 + 94645 x20 + 101428 x21 + 96587 x22
       + 90827 x23 + 99889 x24 + 94527 x25 + 90631 x26 + 98792 x27 + 100594 x28
       + 104589 x29 + 91744 x30 + 107057 x31 + 93126 x32 + 105048 x33
       + 97979 x34 + 103940 x35 + 102098 x36 + 91773 x37 + 108763 x38
       + 95352 x39 + 98398 x40 + 105313 x41 + 98180 x42 + 93446 x43
       + 106237 x44 + 103510 x45 + 93100 x46 + 90103 x47 + 98512 x48
       + 106238 x49 + 101412 x50 + 106492 x51 + 104320 x52 + 101884 x53
       + 107938 x54 + 98082 x55 + 97633 x56 + 98618 x57 + 98629 x58 + 98252 x59
       + 101963 x60 + 92235 x61 + 90073 x62 + 102910 x63 + 94697 x64
       + 102179 x65 + 90190 x66 + 91975 x67 + 91908 x68 + 93208 x69 + 92284 x70
       + 92772 x71 + 101758 x72 + 109031 x73 + 91733 x74 + 98357 x75
       + 109200 x76 + 109218 x77 + 96694 x78 + 108776 x79 + 98305 x80
       + 104451 x81 + 90349 x82 + 91893 x83 + 92175 x84 + 106375 x85
       + 101898 x86 + 99754 x87 + 107381 x88 + 95788 x89 + 103608 x90
       + 106117 x91 + 103096 x92 + 104301 x93 + 100910 x94 + 99977 x95
       + 105157 x96 + 96671 x97 + 97901 x98 + 109792 x99 + 100923 x100
       + 93683 x101 + 101527 x102 + 103615 x103 + 92053 x104 + 108757 x105
       + 94353 x106 + 91435 x107 + 99248 x108 + 105368 x109 + 97973 x110
       + 107782 x111 + 95485 x112 + 96950 x113 + 107006 x114 + 94989 x115
       + 102460 x116 + 106094 x117 + 97039 x118 + 100535 x119 + 98683 x120
       + 97088 x121 + 100938 x122 + 106930 x123 + 95114 x124 + 95042 x125
       + 108737 x126 + 107254 x127 + 108355 x128 + 100265 x129 + 107541 x130
       + 101992 x131 + 96786 x132 + 92452 x133 + 90465 x134 + 91955 x135
       + 91759 x136 + 92289 x137 + 92210 x138 + 101562 x139 + 93599 x140
       + 97062 x141 + 100534 x142 + 90554 x143 + 104852 x144 + 105209 x145
       + 102953 x146 + 106110 x147 + 107383 x148 + 90936 x149 + 90222 x150
       + 102969 x151 + 91721 x152 + 104407 x153 + 99552 x154 + 98893 x155
       + 106324 x156 + 103045 x157 + 102571 x158 + 98106 x159 + 104280 x160
       + 105119 x161 + 105721 x162 + 106330 x163 + 105442 x164 + 98058 x165
       + 94069 x166 + 97601 x167 + 103137 x168 + 90852 x169 + 93454 x170
       + 95277 x171 + 106293 x172 + 92375 x173 + 90427 x174 + 97444 x175
       + 100219 x176 + 105656 x177 + 94626 x178 + 90435 x179 + 92237 x180
       + 102006 x181 + 97186 x182 + 99926 x183 + 100069 x184 + 100585 x185
       + 90758 x186 + 105607 x187 + 99563 x188 + 97180 x189 + 92532 x190
       + 90214 x191 + 103257 x192 + 97964 x193 + 96137 x194 + 107806 x195
       + 99814 x196 + 97533 x197 + 93749 x198 + 90353 x199 + 96868 x200
       + 90223 x201 + 107498 x202 + 103071 x203 + 106118 x204 + 105956 x205
       + 105050 x206 + 100629 x207 + 105465 x208 + 103207 x209 + 105819 x210
       + 103582 x211 + 96123 x212 + 90333 x213 + 108616 x214 + 105802 x215
       + 102345 x216 + 95736 x217 + 91595 x218 + 95720 x219 + 96712 x220
       + 107180 x221 + 90971 x222 + 106895 x223 + 94922 x224 + 91103 x225
       + 96290 x226 + 106687 x227 + 90569 x228 + 103839 x229 + 106878 x230
       + 105782 x231 + 92639 x232 + 98432 x233 + 96669 x234 + 105830 x235
       + 106247 x236 + 93079 x237 + 92710 x238 + 97655 x239 + 100633 x240
       + 97475 x241 + 98908 x242 + 106251 x243 + 91459 x244 + 107341 x245
       + 107373 x246 + 104720 x247 + 93442 x248 + 102368 x249 + 97441 x250
       + 94866 x251 + 103359 x252 + 99261 x253 + 108120 x254 + 105630 x255
       + 95961 x256 + 98278 x257 + 101641 x258 + 99020 x259 + 93323 x260
       + 101055 x261 + 102046 x262 + 98710 x263 + 91701 x264 + 92971 x265
       + 103773 x266 + 103070 x267 + 99907 x268 + 104223 x269 + 95656 x270
       + 94370 x271 + 106342 x272 + 97830 x273 + 94390 x274 + 90303 x275
       + 93303 x276 + 92525 x277 + 100747 x278 + 93974 x279 + 99159 x280
       + 93804 x281 + 101677 x282 + 104168 x283 + 91747 x284 + 97369 x285
       + 101936 x286 + 108961 x287 + 99568 x288 + 105784 x289 + 99989 x290
       + 102647 x291 + 91347 x292 + 101361 x293 + 104663 x294 + 98461 x295
       + 99017 x296 + 106133 x297 + 101412 x298 + 97732 x299 + 104424 x300
       + 95791 x301 + 93051 x302 + 109164 x303 + 96949 x304 + 106441 x305
       + 102322 x306 + 107656 x307 + 91799 x308 + 95328 x309 + 94495 x310
       + 96675 x311 + 108894 x312 + 96583 x313 + 105859 x314 + 103273 x315
       + 93947 x316 + 93599 x317 + 93344 x318 + 101169 x319 + 99714 x320
       + 102094 x321 + 107193 x322 + 101754 x323 + 93196 x324 + 96155 x325
       + 94523 x326 + 105576 x327 + 92516 x328 + 101422 x329 + 108228 x330
       + 92528 x331 + 90532 x332 + 90398 x333 + 99787 x334 + 107608 x335
       + 106627 x336 + 106267 x337 + 104231 x338 + 108340 x339 + 108161 x340
       + 93675 x341 + 100855 x342 + 99816 x343 + 98681 x344 + 107604 x345
       + 94227 x346 + 93802 x347 + 101294 x348 + 104748 x349 + 106618 x350
       + 109470 x351 + 92467 x352 + 95758 x353 + 105191 x354 + 105051 x355
       + 104057 x356 + 91244 x357 + 105113 x358 + 92074 x359 + 109514 x360
       + 103974 x361 + 90647 x362 + 105958 x363 + 97363 x364 + 97339 x365
       + 95044 x366 + 109935 x367 + 98373 x368 + 104482 x369 + 107409 x370
       + 93972 x371 + 91591 x372 + 97336 x373 + 97590 x374 + 107213 x375
       + 104282 x376 + 99923 x377 + 93774 x378 + 109662 x379 + 104954 x380
       + 99241 x381 + 99567 x382 + 98612 x383 + 91946 x384 + 92476 x385
       + 106874 x386 + 97294 x387 + 97962 x388 + 94137 x389 + 96562 x390
       + 100532 x391 + 101610 x392 + 105474 x393 + 99685 x394 + 106248 x395
       + 105606 x396 + 102952 x397 + 93484 x398 + 101419 x399 + 100563 x400
       + 92561 x401 + 108424 x402 + 96351 x403 + 103126 x404 + 102387 x405
       + 105201 x406 + 92167 x407 + 97710 x408 + 107145 x409 + 103956 x410
       + 102908 x411 + 102227 x412 + 95258 x413 + 91863 x414 + 95943 x415
       + 99884 x416 + 101601 x417 + 99798 x418 + 102119 x419 + 91563 x420
       + 106206 x421 + 90667 x422 + 94287 x423 + 102590 x424 + 100314 x425
       + 96496 x426 + 97334 x427 + 102078 x428 + 101842 x429 + 98501 x430
       + 109511 x431 + 93651 x432 + 108694 x433 + 109635 x434 + 102805 x435
       + 91409 x436 + 97464 x437 + 93841 x438 + 94551 x439 + 106162 x440
       + 94206 x441 + 98433 x442 + 101191 x443 + 104517 x444 + 105759 x445
       + 102723 x446 + 105642 x447 + 106534 x448 + 107484 x449 + 101810 x450
       + 98093 x451 + 97019 x452 + 91308 x453 + 93220 x454 + 100806 x455
       + 109654 x456 + 96537 x457 + 98470 x458 + 98953 x459 + 92833 x460
       + 95162 x461 + 91637 x462 + 91560 x463 + 101419 x464 + 103243 x465
       + 102699 x466 + 109310 x467 + 99597 x468 + 100443 x469 + 94630 x470
       + 99249 x471 + 106582 x472 + 100892 x473 + 100172 x474 + 90372 x475
       + 109124 x476 + 90305 x477 + 106699 x478 + 108613 x479 + 102625 x480
       + 106103 x481 + 94571 x482 + 97504 x483 + 96134 x484 + 105339 x485
       + 107668 x486 + 90136 x487 + 93897 x488 + 93246 x489 + 106389 x490
       + 98457 x491 + 95769 x492 + 96834 x493 + 104908 x494 + 107576 x495
       + 107999 x496 + 106086 x497 + 95220 x498 + 103054 x499 + 109632 x500
       + 91676 x501 + 103136 x502 + 101173 x503 + 105591 x504 + 95623 x505
       + 107494 x506 + 100382 x507 + 96205 x508 + 101849 x509 + 101268 x510
       + 108159 x511 + 90784 x512 + 102033 x513 + 91268 x514 + 96271 x515
       + 93657 x516 + 106255 x517 + 101708 x518 + 91828 x519 + 92501 x520
       + 107630 x521 + 106200 x522 + 101533 x523 + 100854 x524 + 95443 x525
       + 102538 x526 + 92183 x527 + 109360 x528 + 102293 x529 + 105179 x530
       + 91747 x531 + 103630 x532 + 107283 x533 + 101409 x534 + 92226 x535
       + 90480 x536 + 99559 x537 + 98929 x538 + 108043 x539 + 98904 x540
       + 107295 x541 + 106581 x542 + 99932 x543 + 93332 x544 + 94213 x545
       + 108219 x546 + 102544 x547 + 106244 x548 + 96461 x549 + 96162 x550
       + 106974 x551 + 103443 x552 + 105250 x553 + 92900 x554 + 108206 x555
       + 90916 x556 + 98918 x557 + 94060 x558 + 96663 x559 + 97614 x560
       + 98979 x561 + 100566 x562 + 99576 x563 + 100015 x564 + 105193 x565
       + 99772 x566 + 93240 x567 + 97800 x568 + 94899 x569 + 92829 x570
       + 107648 x571 + 90189 x572 + 102031 x573 + 104000 x574 + 93003 x575
       + 91230 x576 + 102050 x577 + 91736 x578 + 96207 x579 + 106753 x580
       + 100415 x581 + 91000 x582 + 104687 x583 + 95698 x584 + 94325 x585
       + 91701 x586 + 94740 x587 + 94192 x588 + 90066 x589 + 99018 x590
       + 92120 x591 + 92005 x592 + 91676 x593 + 107997 x594 + 93659 x595
       + 97918 x596 + 90497 x597 + 97014 x598 + 90475 x599 + 360370 x600
       + 414215 x601 + 439248 x602 + 439870 x603 + 365354 x604 + 421605 x605
       + 426382 x606 + 406704 x607 + 400069 x608 + 429151 x609 + 364080 x610
       + 375727 x611 + 400366 x612 + 367130 x613 + 379364 x614 + 430091 x615
       + 402882 x616 + 374566 x617 + 425675 x618 + 364869 x619 + 410633 x620
       + 382530 x621 + 418013 x622 + 403126 x623 + 416002 x624 + 414421 x625
       + 372573 x626 + 397613 x627 + 365265 x628 + 390031 x629 + 438092 x630
       + 382415 x631 + 369110 x632 + 417190 x633 + 367491 x634 + 429646 x635
       + 388687 x636 + 399202 x637 + 427187 x638 + 384444 x639 + 379309 x640
       + 398273 x641 + 417800 x642 + 437242 x643 + 373995 x644 + 414555 x645
       + 383802 x646 + 365489 x647 + 436639 x648 + 387403 x649 + 360976 x650
       + 397710 x651 + 409635 x652 + 379879 x653 + 429395 x654 + 420968 x655
       + 363407 x656 + 429509 x657 + 405951 x658 + 428528 x659 + 378516 x660
Subject To
 c1:   - x3 + x5 + x7 + x12 - x13 + x23 - x29 - x35 - x36 + x38 - x41 + x50
        = 0
 c2:   - x63 + x65 + x67 + x72 - x73 + x83 - x89 - x95 - x96 + x98 - x101
       + x110  = 0
 c3:   - x123 + x125 + x127 + x132 - x133 + x143 - x149 - x155 - x156 + x158
       - x161 + x170  = 0
 c4:   - x183 + x185 + x187 + x192 - x193 + x203 - x209 - x215 - x216 + x218
       - x221 + x230  = 0
 c5:   - x243 + x245 + x247 + x252 - x253 + x263 - x269 - x275 - x276 + x278
       - x281 + x290  = 0
 c6:   - x303 + x305 + x307 + x312 - x313 + x323 - x329 - x335 - x336 + x338
       - x341 + x350  = 0
 c7:   - x363 + x365 + x367 + x372 - x373 + x383 - x389 - x395 - x396 + x398
       - x401 + x410  = 0
 c8:   - x423 + x425 + x427 + x432 - x433 + x443 - x449 - x455 - x456 + x458
       - x461 + x470  = 0
 c9:   - x483 + x485 + x487 + x492 - x493 + x503 - x509 - x515 - x516 + x518
       - x521 + x530  = 0
 c10:  - x543 + x545 + x547 + x552 - x553 + x563 - x569 - x575 - x576 + x578
       - x581 + x590  = -1
 c11:  x3 + x6 + x18 - x23 + x32 + x33 - x52 - x53 + x57 - x58  = 0
 c12:  x63 + x66 + x78 - x83 + x92 + x93 - x112 - x113 + x117 - x118  = 0
 c13:  x123 + x126 + x138 - x143 + x152 + x153 - x172 - x173 + x177 - x178  = 0
 c14:  x183 + x186 + x198 - x203 + x212 + x213 - x232 - x233 + x237 - x238
        = -1
 c15:  x243 + x246 + x258 - x263 + x272 + x273 - x292 - x293 + x297 - x298  = 0
 c16:  x303 + x306 + x318 - x323 + x332 + x333 - x352 - x353 + x357 - x358  = 0
 c17:  x363 + x366 + x378 - x383 + x392 + x393 - x412 - x413 + x417 - x418  = 1
 c18:  x423 + x426 + x438 - x443 + x452 + x453 - x472 - x473 + x477 - x478  = 0
 c19:  x483 + x486 + x498 - x503 + x512 + x513 - x532 - x533 + x537 - x538  = 0
 c20:  x543 + x546 + x558 - x563 + x572 + x573 - x592 - x593 + x597 - x598  = 0
 c21:  x2 - x18 - x20 - x22 + x30 + x35 - x38 + x42 + x43 - x47 + x52 - x59
       + x60  = 0
 c22:  x62 - x78 - x80 - x82 + x90 + x95 - x98 + x102 + x103 - x107 + x112
       - x119 + x120  = 0
 c23:  x122 - x138 - x140 - x142 + x150 + x155 - x158 + x162 + x163 - x167
       + x172 - x179 + x180  = 0
 c24:  x182 - x198 - x200 - x202 + x210 + x215 - x218 + x222 + x223 - x227
       + x232 - x239 + x240  = 1
 c25:  x242 - x258 - x260 - x262 + x270 + x275 - x278 + x282 + x283 - x287
       + x292 - x299 + x300  = 0
 c26:  x302 - x318 - x320 - x322 + x330 + x335 - x338 + x342 + x343 - x347
       + x352 - x359 + x360  = 0
 c27:  x362 - x378 - x380 - x382 + x390 + x395 - x398 + x402 + x403 - x407
       + x412 - x419 + x420  = 0
 c28:  x422 - x438 - x440 - x442 + x450 + x455 - x458 + x462 + x463 - x467
       + x472 - x479 + x480  = 0
 c29:  x482 - x498 - x500 - x502 + x510 + x515 - x518 + x522 + x523 - x527
       + x532 - x539 + x540  = 1
 c30:  x542 - x558 - x560 - x562 + x570 + x575 - x578 + x582 + x583 - x587
       + x592 - x599 + x600  = 0
 c31:  - x1 - x7 + x11 - x21 + x24 + x26 + x27 + x39 + x44 - x45 + x47 - x48
        = 1
 c32:  - x61 - x67 + x71 - x81 + x84 + x86 + x87 + x99 + x104 - x105 + x107
       - x108  = 0
 c33:  - x121 - x127 + x131 - x141 + x144 + x146 + x147 + x159 + x164 - x165
       + x167 - x168  = 0
 c34:  - x181 - x187 + x191 - x201 + x204 + x206 + x207 + x219 + x224 - x225
       + x227 - x228  = 0
 c35:  - x241 - x247 + x251 - x261 + x264 + x266 + x267 + x279 + x284 - x285
       + x287 - x288  = 0
 c36:  - x301 - x307 + x311 - x321 + x324 + x326 + x327 + x339 + x344 - x345
       + x347 - x348  = 0
 c37:  - x361 - x367 + x371 - x381 + x384 + x386 + x387 + x399 + x404 - x405
       + x407 - x408  = -1
 c38:  - x421 - x427 + x431 - x441 + x444 + x446 + x447 + x459 + x464 - x465
       + x467 - x468  = 0
 c39:  - x481 - x487 + x491 - x501 + x504 + x506 + x507 + x519 + x524 - x525
       + x527 - x528  = 0
 c40:  - x541 - x547 + x551 - x561 + x564 + x566 + x567 + x579 + x584 - x585
       + x587 - x588  = 0
 c41:  x1 - x6 + x10 - x11 + x14 + x19 - x25 + x28 - x46 + x49 - x51 - x56  = 0
 c42:  x61 - x66 + x70 - x71 + x74 + x79 - x85 + x88 - x106 + x109 - x111
       - x116  = 0
 c43:  x121 - x126 + x130 - x131 + x134 + x139 - x145 + x148 - x166 + x169
       - x171 - x176  = 1
 c44:  x181 - x186 + x190 - x191 + x194 + x199 - x205 + x208 - x226 + x229
       - x231 - x236  = 0
 c45:  x241 - x246 + x250 - x251 + x254 + x259 - x265 + x268 - x286 + x289
       - x291 - x296  = -1
 c46:  x301 - x306 + x310 - x311 + x314 + x319 - x325 + x328 - x346 + x349
       - x351 - x356  = -1
 c47:  x361 - x366 + x370 - x371 + x374 + x379 - x385 + x388 - x406 + x409
       - x411 - x416  = 0
 c48:  x421 - x426 + x430 - x431 + x434 + x439 - x445 + x448 - x466 + x469
       - x471 - x476  = 0
 c49:  x481 - x486 + x490 - x491 + x494 + x499 - x505 + x508 - x526 + x529
       - x531 - x536  = 0
 c50:  x541 - x546 + x550 - x551 + x554 + x559 - x565 + x568 - x586 + x589
       - x591 - x596  = 0
 c51:  - x8 - x9 - x10 - x12 - x26 - x30 - x33 + x36 + x46 + x54 - x55 + x58
        = 0
 c52:  - x68 - x69 - x70 - x72 - x86 - x90 - x93 + x96 + x106 + x114 - x115
       + x118  = 0
 c53:  - x128 - x129 - x130 - x132 - x146 - x150 - x153 + x156 + x166 + x174
       - x175 + x178  = 0
 c54:  - x188 - x189 - x190 - x192 - x206 - x210 - x213 + x216 + x226 + x234
       - x235 + x238  = 0
 c55:  - x248 - x249 - x250 - x252 - x266 - x270 - x273 + x276 + x286 + x294
       - x295 + x298  = 0
 c56:  - x308 - x309 - x310 - x312 - x326 - x330 - x333 + x336 + x346 + x354
       - x355 + x358  = 1
 c57:  - x368 - x369 - x370 - x372 - x386 - x390 - x393 + x396 + x406 + x414
       - x415 + x418  = 0
 c58:  - x428 - x429 - x430 - x432 - x446 - x450 - x453 + x456 + x466 + x474
       - x475 + x478  = -1
 c59:  - x488 - x489 - x490 - x492 - x506 - x510 - x513 + x516 + x526 + x534
       - x535 + x538  = 0
 c60:  - x548 - x549 - x550 - x552 - x566 - x570 - x573 + x576 + x586 + x594
       - x595 + x598  = 0
 c61:  x9 - x16 + x20 + x21 + x29 - x32 + x34 - x37 - x39 + x40 - x42 - x49
       + x53 - x54  = 0
 c62:  x69 - x76 + x80 + x81 + x89 - x92 + x94 - x97 - x99 + x100 - x102 - x109
       + x113 - x114  = -1
 c63:  x129 - x136 + x140 + x141 + x149 - x152 + x154 - x157 - x159 + x160
       - x162 - x169 + x173 - x174  = 0
 c64:  x189 - x196 + x200 + x201 + x209 - x212 + x214 - x217 - x219 + x220
       - x222 - x229 + x233 - x234  = 0
 c65:  x249 - x256 + x260 + x261 + x269 - x272 + x274 - x277 - x279 + x280
       - x282 - x289 + x293 - x294  = 0
 c66:  x309 - x316 + x320 + x321 + x329 - x332 + x334 - x337 - x339 + x340
       - x342 - x349 + x353 - x354  = 0
 c67:  x369 - x376 + x380 + x381 + x389 - x392 + x394 - x397 - x399 + x400
       - x402 - x409 + x413 - x414  = 0
 c68:  x429 - x436 + x440 + x441 + x449 - x452 + x454 - x457 - x459 + x460
       - x462 - x469 + x473 - x474  = 1
 c69:  x489 - x496 + x500 + x501 + x509 - x512 + x514 - x517 - x519 + x520
       - x522 - x529 + x533 - x534  = 0
 c70:  x549 - x556 + x560 + x561 + x569 - x572 + x574 - x577 - x579 + x580
       - x582 - x589 + x593 - x594  = 0
 c71:  - x4 + x8 + x13 + x15 - x19 + x22 - x24 - x31 - x34 + x37 + x45 + x56
       - x60  = 0
 c72:  - x64 + x68 + x73 + x75 - x79 + x82 - x84 - x91 - x94 + x97 + x105
       + x116 - x120  = 0
 c73:  - x124 + x128 + x133 + x135 - x139 + x142 - x144 - x151 - x154 + x157
       + x165 + x176 - x180  = -1
 c74:  - x184 + x188 + x193 + x195 - x199 + x202 - x204 - x211 - x214 + x217
       + x225 + x236 - x240  = 0
 c75:  - x244 + x248 + x253 + x255 - x259 + x262 - x264 - x271 - x274 + x277
       + x285 + x296 - x300  = 0
 c76:  - x304 + x308 + x313 + x315 - x319 + x322 - x324 - x331 - x334 + x337
       + x345 + x356 - x360  = 0
 c77:  - x364 + x368 + x373 + x375 - x379 + x382 - x384 - x391 - x394 + x397
       + x405 + x416 - x420  = 0
 c78:  - x424 + x428 + x433 + x435 - x439 + x442 - x444 - x451 - x454 + x457
       + x465 + x476 - x480  = 0
 c79:  - x484 + x488 + x493 + x495 - x499 + x502 - x504 - x511 - x514 + x517
       + x525 + x536 - x540  = -1
 c80:  - x544 + x548 + x553 + x555 - x559 + x562 - x564 - x571 - x574 + x577
       + x585 + x596 - x600  = 1
 c81:  - x2 - x5 - x15 + x17 + x25 - x27 - x28 + x31 + x41 - x57 + x59  = 0
 c82:  - x62 - x65 - x75 + x77 + x85 - x87 - x88 + x91 + x101 - x117 + x119
        = 1
 c83:  - x122 - x125 - x135 + x137 + x145 - x147 - x148 + x151 + x161 - x177
       + x179  = 0
 c84:  - x182 - x185 - x195 + x197 + x205 - x207 - x208 + x211 + x221 - x237
       + x239  = 0
 c85:  - x242 - x245 - x255 + x257 + x265 - x267 - x268 + x271 + x281 - x297
       + x299  = 1
 c86:  - x302 - x305 - x315 + x317 + x325 - x327 - x328 + x331 + x341 - x357
       + x359  = 0
 c87:  - x362 - x365 - x375 + x377 + x385 - x387 - x388 + x391 + x401 - x417
       + x419  = 0
 c88:  - x422 - x425 - x435 + x437 + x445 - x447 - x448 + x451 + x461 - x477
       + x479  = 0
 c89:  - x482 - x485 - x495 + x497 + x505 - x507 - x508 + x511 + x521 - x537
       + x539  = 0
 c90:  - x542 - x545 - x555 + x557 + x565 - x567 - x568 + x571 + x581 - x597
       + x599  = 0
 c91:  x4 - x14 + x16 - x17 - x40 - x43 - x44 + x48 - x50 + x51 + x55  = -1
 c92:  x64 - x74 + x76 - x77 - x100 - x103 - x104 + x108 - x110 + x111 + x115
        = 0
 c93:  x124 - x134 + x136 - x137 - x160 - x163 - x164 + x168 - x170 + x171
       + x175  = 0
 c94:  x184 - x194 + x196 - x197 - x220 - x223 - x224 + x228 - x230 + x231
       + x235  = 0
 c95:  x244 - x254 + x256 - x257 - x280 - x283 - x284 + x288 - x290 + x291
       + x295  = 0
 c96:  x304 - x314 + x316 - x317 - x340 - x343 - x344 + x348 - x350 + x351
       + x355  = 0
 c97:  x364 - x374 + x376 - x377 - x400 - x403 - x404 + x408 - x410 + x411
       + x415  = 0
 c98:  x424 - x434 + x436 - x437 - x460 - x463 - x464 + x468 - x470 + x471
       + x475  = 0
 c99:  x484 - x494 + x496 - x497 - x520 - x523 - x524 + x528 - x530 + x531
       + x535  = 0
 c100: x544 - x554 + x556 - x557 - x580 - x583 - x584 + x588 - x590 + x591
       + x595  = 0
 c101: 4 x1 + 4 x61 + 4 x121 + 4 x181 + 4 x241 + 4 x301 + 4 x361 + 4 x421
       + 4 x481 + 4 x541 - 19 x601 <= 0
 c102: 4 x2 + 4 x62 + 4 x122 + 4 x182 + 4 x242 + 4 x302 + 4 x362 + 4 x422
       + 4 x482 + 4 x542 - 22 x602 <= 0
 c103: 4 x3 + 4 x63 + 4 x123 + 4 x183 + 4 x243 + 4 x303 + 4 x363 + 4 x423
       + 4 x483 + 4 x543 - 18 x603 <= 0
 c104: 4 x4 + 4 x64 + 4 x124 + 4 x184 + 4 x244 + 4 x304 + 4 x364 + 4 x424
       + 4 x484 + 4 x544 - 18 x604 <= 0
 c105: 4 x5 + 4 x65 + 4 x125 + 4 x185 + 4 x245 + 4 x305 + 4 x365 + 4 x425
       + 4 x485 + 4 x545 - 18 x605 <= 0
 c106: 4 x6 + 4 x66 + 4 x126 + 4 x186 + 4 x246 + 4 x306 + 4 x366 + 4 x426
       + 4 x486 + 4 x546 - 21 x606 <= 0
 c107: 4 x7 + 4 x67 + 4 x127 + 4 x187 + 4 x247 + 4 x307 + 4 x367 + 4 x427
       + 4 x487 + 4 x547 - 19 x607 <= 0
 c108: 4 x8 + 4 x68 + 4 x128 + 4 x188 + 4 x248 + 4 x308 + 4 x368 + 4 x428
       + 4 x488 + 4 x548 - 18 x608 <= 0
 c109: 4 x9 + 4 x69 + 4 x129 + 4 x189 + 4 x249 + 4 x309 + 4 x369 + 4 x429
       + 4 x489 + 4 x549 - 20 x609 <= 0
 c110: 4 x10 + 4 x70 + 4 x130 + 4 x190 + 4 x250 + 4 x310 + 4 x370 + 4 x430
       + 4 x490 + 4 x550 - 20 x610 <= 0
 c111: 4 x11 + 4 x71 + 4 x131 + 4 x191 + 4 x251 + 4 x311 + 4 x371 + 4 x431
       + 4 x491 + 4 x551 - 18 x611 <= 0
 c112: 4 x12 + 4 x72 + 4 x132 + 4 x192 + 4 x252 + 4 x312 + 4 x372 + 4 x432
       + 4 x492 + 4 x552 - 20 x612 <= 0
 c113: 4 x13 + 4 x73 + 4 x133 + 4 x193 + 4 x253 + 4 x313 + 4 x373 + 4 x433
       + 4 x493 + 4 x553 - 19 x613 <= 0
 c114: 4 x14 + 4 x74 + 4 x134 + 4 x194 + 4 x254 + 4 x314 + 4 x374 + 4 x434
       + 4 x494 + 4 x554 - 21 x614 <= 0
 c115: 4 x15 + 4 x75 + 4 x135 + 4 x195 + 4 x255 + 4 x315 + 4 x375 + 4 x435
       + 4 x495 + 4 x555 - 21 x615 <= 0
 c116: 4 x16 + 4 x76 + 4 x136 + 4 x196 + 4 x256 + 4 x316 + 4 x376 + 4 x436
       + 4 x496 + 4 x556 - 21 x616 <= 0
 c117: 4 x17 + 4 x77 + 4 x137 + 4 x197 + 4 x257 + 4 x317 + 4 x377 + 4 x437
       + 4 x497 + 4 x557 - 19 x617 <= 0
 c118: 4 x18 + 4 x78 + 4 x138 + 4 x198 + 4 x258 + 4 x318 + 4 x378 + 4 x438
       + 4 x498 + 4 x558 - 19 x618 <= 0
 c119: 4 x19 + 4 x79 + 4 x139 + 4 x199 + 4 x259 + 4 x319 + 4 x379 + 4 x439
       + 4 x499 + 4 x559 - 21 x619 <= 0
 c120: 4 x20 + 4 x80 + 4 x140 + 4 x200 + 4 x260 + 4 x320 + 4 x380 + 4 x440
       + 4 x500 + 4 x560 - 22 x620 <= 0
 c121: 4 x21 + 4 x81 + 4 x141 + 4 x201 + 4 x261 + 4 x321 + 4 x381 + 4 x441
       + 4 x501 + 4 x561 - 21 x621 <= 0
 c122: 4 x22 + 4 x82 + 4 x142 + 4 x202 + 4 x262 + 4 x322 + 4 x382 + 4 x442
       + 4 x502 + 4 x562 - 21 x622 <= 0
 c123: 4 x23 + 4 x83 + 4 x143 + 4 x203 + 4 x263 + 4 x323 + 4 x383 + 4 x443
       + 4 x503 + 4 x563 - 18 x623 <= 0
 c124: 4 x24 + 4 x84 + 4 x144 + 4 x204 + 4 x264 + 4 x324 + 4 x384 + 4 x444
       + 4 x504 + 4 x564 - 21 x624 <= 0
 c125: 4 x25 + 4 x85 + 4 x145 + 4 x205 + 4 x265 + 4 x325 + 4 x385 + 4 x445
       + 4 x505 + 4 x565 - 18 x625 <= 0
 c126: 4 x26 + 4 x86 + 4 x146 + 4 x206 + 4 x266 + 4 x326 + 4 x386 + 4 x446
       + 4 x506 + 4 x566 - 20 x626 <= 0
 c127: 4 x27 + 4 x87 + 4 x147 + 4 x207 + 4 x267 + 4 x327 + 4 x387 + 4 x447
       + 4 x507 + 4 x567 - 21 x627 <= 0
 c128: 4 x28 + 4 x88 + 4 x148 + 4 x208 + 4 x268 + 4 x328 + 4 x388 + 4 x448
       + 4 x508 + 4 x568 - 22 x628 <= 0
 c129: 4 x29 + 4 x89 + 4 x149 + 4 x209 + 4 x269 + 4 x329 + 4 x389 + 4 x449
       + 4 x509 + 4 x569 - 22 x629 <= 0
 c130: 4 x30 + 4 x90 + 4 x150 + 4 x210 + 4 x270 + 4 x330 + 4 x390 + 4 x450
       + 4 x510 + 4 x570 - 21 x630 <= 0
 c131: 4 x31 + 4 x91 + 4 x151 + 4 x211 + 4 x271 + 4 x331 + 4 x391 + 4 x451
       + 4 x511 + 4 x571 - 20 x631 <= 0
 c132: 4 x32 + 4 x92 + 4 x152 + 4 x212 + 4 x272 + 4 x332 + 4 x392 + 4 x452
       + 4 x512 + 4 x572 - 18 x632 <= 0
 c133: 4 x33 + 4 x93 + 4 x153 + 4 x213 + 4 x273 + 4 x333 + 4 x393 + 4 x453
       + 4 x513 + 4 x573 - 21 x633 <= 0
 c134: 4 x34 + 4 x94 + 4 x154 + 4 x214 + 4 x274 + 4 x334 + 4 x394 + 4 x454
       + 4 x514 + 4 x574 - 18 x634 <= 0
 c135: 4 x35 + 4 x95 + 4 x155 + 4 x215 + 4 x275 + 4 x335 + 4 x395 + 4 x455
       + 4 x515 + 4 x575 - 20 x635 <= 0
 c136: 4 x36 + 4 x96 + 4 x156 + 4 x216 + 4 x276 + 4 x336 + 4 x396 + 4 x456
       + 4 x516 + 4 x576 - 19 x636 <= 0
 c137: 4 x37 + 4 x97 + 4 x157 + 4 x217 + 4 x277 + 4 x337 + 4 x397 + 4 x457
       + 4 x517 + 4 x577 - 18 x637 <= 0
 c138: 4 x38 + 4 x98 + 4 x158 + 4 x218 + 4 x278 + 4 x338 + 4 x398 + 4 x458
       + 4 x518 + 4 x578 - 22 x638 <= 0
 c139: 4 x39 + 4 x99 + 4 x159 + 4 x219 + 4 x279 + 4 x339 + 4 x399 + 4 x459
       + 4 x519 + 4 x579 - 20 x639 <= 0
 c140: 4 x40 + 4 x100 + 4 x160 + 4 x220 + 4 x280 + 4 x340 + 4 x400 + 4 x460
       + 4 x520 + 4 x580 - 21 x640 <= 0
 c141: 4 x41 + 4 x101 + 4 x161 + 4 x221 + 4 x281 + 4 x341 + 4 x401 + 4 x461
       + 4 x521 + 4 x581 - 21 x641 <= 0
 c142: 4 x42 + 4 x102 + 4 x162 + 4 x222 + 4 x282 + 4 x342 + 4 x402 + 4 x462
       + 4 x522 + 4 x582 - 21 x642 <= 0
 c143: 4 x43 + 4 x103 + 4 x163 + 4 x223 + 4 x283 + 4 x343 + 4 x403 + 4 x463
       + 4 x523 + 4 x583 - 21 x643 <= 0
 c144: 4 x44 + 4 x104 + 4 x164 + 4 x224 + 4 x284 + 4 x344 + 4 x404 + 4 x464
       + 4 x524 + 4 x584 - 21 x644 <= 0
 c145: 4 x45 + 4 x105 + 4 x165 + 4 x225 + 4 x285 + 4 x345 + 4 x405 + 4 x465
       + 4 x525 + 4 x585 - 19 x645 <= 0
 c146: 4 x46 + 4 x106 + 4 x166 + 4 x226 + 4 x286 + 4 x346 + 4 x406 + 4 x466
       + 4 x526 + 4 x586 - 21 x646 <= 0
 c147: 4 x47 + 4 x107 + 4 x167 + 4 x227 + 4 x287 + 4 x347 + 4 x407 + 4 x467
       + 4 x527 + 4 x587 - 19 x647 <= 0
 c148: 4 x48 + 4 x108 + 4 x168 + 4 x228 + 4 x288 + 4 x348 + 4 x408 + 4 x468
       + 4 x528 + 4 x588 - 21 x648 <= 0
 c149: 4 x49 + 4 x109 + 4 x169 + 4 x229 + 4 x289 + 4 x349 + 4 x409 + 4 x469
       + 4 x529 + 4 x589 - 22 x649 <= 0
 c150: 4 x50 + 4 x110 + 4 x170 + 4 x230 + 4 x290 + 4 x350 + 4 x410 + 4 x470
       + 4 x530 + 4 x590 - 19 x650 <= 0
 c151: 4 x51 + 4 x111 + 4 x171 + 4 x231 + 4 x291 + 4 x351 + 4 x411 + 4 x471
       + 4 x531 + 4 x591 - 19 x651 <= 0
 c152: 4 x52 + 4 x112 + 4 x172 + 4 x232 + 4 x292 + 4 x352 + 4 x412 + 4 x472
       + 4 x532 + 4 x592 - 20 x652 <= 0
 c153: 4 x53 + 4 x113 + 4 x173 + 4 x233 + 4 x293 + 4 x353 + 4 x413 + 4 x473
       + 4 x533 + 4 x593 - 22 x653 <= 0
 c154: 4 x54 + 4 x114 + 4 x174 + 4 x234 + 4 x294 + 4 x354 + 4 x414 + 4 x474
       + 4 x534 + 4 x594 - 21 x654 <= 0
 c155: 4 x55 + 4 x115 + 4 x175 + 4 x235 + 4 x295 + 4 x355 + 4 x415 + 4 x475
       + 4 x535 + 4 x595 - 21 x655 <= 0
 c156: 4 x56 + 4 x116 + 4 x176 + 4 x236 + 4 x296 + 4 x356 + 4 x416 + 4 x476
       + 4 x536 + 4 x596 - 19 x656 <= 0
 c157: 4 x57 + 4 x117 + 4 x177 + 4 x237 + 4 x297 + 4 x357 + 4 x417 + 4 x477
       + 4 x537 + 4 x597 - 18 x657 <= 0
 c158: 4 x58 + 4 x118 + 4 x178 + 4 x238 + 4 x298 + 4 x358 + 4 x418 + 4 x478
       + 4 x538 + 4 x598 - 22 x658 <= 0
 c159: 4 x59 + 4 x119 + 4 x179 + 4 x239 + 4 x299 + 4 x359 + 4 x419 + 4 x479
       + 4 x539 + 4 x599 - 21 x659 <= 0
 c160: 4 x60 + 4 x120 + 4 x180 + 4 x240 + 4 x300 + 4 x360 + 4 x420 + 4 x480
       + 4 x540 + 4 x600 - 16 x660 <= 0
Bounds
 0 <= x1 <= 1
 0 <= x2 <= 1
 0 <= x3 <= 1
 0 <= x4 <= 1
 0 <= x5 <= 1
 0 <= x6 <= 1
 0 <= x7 <= 1
 0 <= x8 <= 1
 0 <= x9 <= 1
 0 <= x10 <= 1
 0 <= x11 <= 1
 0 <= x12 <= 1
 0 <= x13 <= 1
 0 <= x14 <= 1
 0 <= x15 <= 1
 0 <= x16 <= 1
 0 <= x17 <= 1
 0 <= x18 <= 1
 0 <= x19 <= 1
 0 <= x20 <= 1
 0 <= x21 <= 1
 0 <= x22 <= 1
 0 <= x23 <= 1
 0 <= x24 <= 1
 0 <= x25 <= 1
 0 <= x26 <= 1
 0 <= x27 <= 1
 0 <= x28 <= 1
 0 <= x29 <= 1
 0 <= x30 <= 1
 0 <= x31 <= 1
 0 <= x32 <= 1
 0 <= x33 <= 1
 0 <= x34 <= 1
 0 <= x35 <= 1
 0 <= x36 <= 1
 0 <= x37 <= 1
 0 <= x38 <= 1
 0 <= x39 <= 1
 0 <= x40 <= 1
 0 <= x41 <= 1
 0 <= x42 <= 1
 0 <= x43 <= 1
 0 <= x44 <= 1
 0 <= x45 <= 1
 0 <= x46 <= 1
 0 <= x47 <= 1
 0 <= x48 <= 1
 0 <= x49 <= 1
 0 <= x50 <= 1
 0 <= x51 <= 1
 0 <= x52 <= 1
 0 <= x53 <= 1
 0 <= x54 <= 1
 0 <= x55 <= 1
 0 <= x56 <= 1
 0 <= x57 <= 1
 0 <= x58 <= 1
 0 <= x59 <= 1
 0 <= x60 <= 1
 0 <= x61 <= 1
 0 <= x62 <= 1
 0 <= x63 <= 1
 0 <= x64 <= 1
 0 <= x65 <= 1
 0 <= x66 <= 1
 0 <= x67 <= 1
 0 <= x68 <= 1
 0 <= x69 <= 1
 0 <= x70 <= 1
 0 <= x71 <= 1
 0 <= x72 <= 1
 0 <= x73 <= 1
 0 <= x74 <= 1
 0 <= x75 <= 1
 0 <= x76 <= 1
 0 <= x77 <= 1
 0 <= x78 <= 1
 0 <= x79 <= 1
 0 <= x80 <= 1
 0 <= x81 <= 1
 0 <= x82 <= 1
 0 <= x83 <= 1
 0 <= x84 <= 1
 0 <= x85 <= 1
 0 <= x86 <= 1
 0 <= x87 <= 1
 0 <= x88 <= 1
 0 <= x89 <= 1
 0 <= x90 <= 1
 0 <= x91 <= 1
 0 <= x92 <= 1
 0 <= x93 <= 1
 0 <= x94 <= 1
 0 <= x95 <= 1
 0 <= x96 <= 1
 0 <= x97 <= 1
 0 <= x98 <= 1
 0 <= x99 <= 1
 0 <= x100 <= 1
 0 <= x101 <= 1
 0 <= x102 <= 1
 0 <= x103 <= 1
 0 <= x104 <= 1
 0 <= x105 <= 1
 0 <= x106 <= 1
 0 <= x107 <= 1
 0 <= x108 <= 1
 0 <= x109 <= 1
 0 <= x110 <= 1
 0 <= x111 <= 1
 0 <= x112 <= 1
 0 <= x113 <= 1
 0 <= x114 <= 1
 0 <= x115 <= 1
 0 <= x116 <= 1
 0 <= x117 <= 1
 0 <= x118 <= 1
 0 <= x119 <= 1
 0 <= x120 <= 1
 0 <= x121 <= 1
 0 <= x122 <= 1
 0 <= x123 <= 1
 0 <= x124 <= 1
 0 <= x125 <= 1
 0 <= x126 <= 1
 0 <= x127 <= 1
 0 <= x128 <= 1
 0 <= x129 <= 1
 0 <= x130 <= 1
 0 <= x131 <= 1
 0 <= x132 <= 1
 0 <= x133 <= 1
 0 <= x134 <= 1
 0 <= x135 <= 1
 0 <= x136 <= 1
 0 <= x137 <= 1
 0 <= x138 <= 1
 0 <= x139 <= 1
 0 <= x140 <= 1
 0 <= x141 <= 1
 0 <= x142 <= 1
 0 <= x143 <= 1
 0 <= x144 <= 1
 0 <= x145 <= 1
 0 <= x146 <= 1
 0 <= x147 <= 1
 0 <= x148 <= 1
 0 <= x149 <= 1
 0 <= x150 <= 1
 0 <= x151 <= 1
 0 <= x152 <= 1
 0 <= x153 <= 1
 0 <= x154 <= 1
 0 <= x155 <= 1
 0 <= x156 <= 1
 0 <= x157 <= 1
 0 <= x158 <= 1
 0 <= x159 <= 1
 0 <= x160 <= 1
 0 <= x161 <= 1
 0 <= x162 <= 1
 0 <= x163 <= 1
 0 <= x164 <= 1
 0 <= x165 <= 1
 0 <= x166 <= 1
 0 <= x167 <= 1
 0 <= x168 <= 1
 0 <= x169 <= 1
 0 <= x170 <= 1
 0 <= x171 <= 1
 0 <= x172 <= 1
 0 <= x173 <= 1
 0 <= x174 <= 1
 0 <= x175 <= 1
 0 <= x176 <= 1
 0 <= x177 <= 1
 0 <= x178 <= 1
 0 <= x179 <= 1
 0 <= x180 <= 1
 0 <= x181 <= 1
 0 <= x182 <= 1
 0 <= x183 <= 1
 0 <= x184 <= 1
 0 <= x185 <= 1
 0 <= x186 <= 1
 0 <= x187 <= 1
 0 <= x188 <= 1
 0 <= x189 <= 1
 0 <= x190 <= 1
 0 <= x191 <= 1
 0 <= x192 <= 1
 0 <= x193 <= 1
 0 <= x194 <= 1
 0 <= x195 <= 1
 0 <= x196 <= 1
 0 <= x197 <= 1
 0 <= x198 <= 1
 0 <= x199 <= 1
 0 <= x200 <= 1
 0 <= x201 <= 1
 0 <= x202 <= 1
 0 <= x203 <= 1
 0 <= x204 <= 1
 0 <= x205 <= 1
 0 <= x206 <= 1
 0 <= x207 <= 1
 0 <= x208 <= 1
 0 <= x209 <= 1
 0 <= x210 <= 1
 0 <= x211 <= 1
 0 <= x212 <= 1
 0 <= x213 <= 1
 0 <= x214 <= 1
 0 <= x215 <= 1
 0 <= x216 <= 1
 0 <= x217 <= 1
 0 <= x218 <= 1
 0 <= x219 <= 1
 0 <= x220 <= 1
 0 <= x221 <= 1
 0 <= x222 <= 1
 0 <= x223 <= 1
 0 <= x224 <= 1
 0 <= x225 <= 1
 0 <= x226 <= 1
 0 <= x227 <= 1
 0 <= x228 <= 1
 0 <= x229 <= 1
 0 <= x230 <= 1
 0 <= x231 <= 1
 0 <= x232 <= 1
 0 <= x233 <= 1
 0 <= x234 <= 1
 0 <= x235 <= 1
 0 <= x236 <= 1
 0 <= x237 <= 1
 0 <= x238 <= 1
 0 <= x239 <= 1
 0 <= x240 <= 1
 0 <= x241 <= 1
 0 <= x242 <= 1
 0 <= x243 <= 1
 0 <= x244 <= 1
 0 <= x245 <= 1
 0 <= x246 <= 1
 0 <= x247 <= 1
 0 <= x248 <= 1
 0 <= x249 <= 1
 0 <= x250 <= 1
 0 <= x251 <= 1
 0 <= x252 <= 1
 0 <= x253 <= 1
 0 <= x254 <= 1
 0 <= x255 <= 1
 0 <= x256 <= 1
 0 <= x257 <= 1
 0 <= x258 <= 1
 0 <= x259 <= 1
 0 <= x260 <= 1
 0 <= x261 <= 1
 0 <= x262 <= 1
 0 <= x263 <= 1
 0 <= x264 <= 1
 0 <= x265 <= 1
 0 <= x266 <= 1
 0 <= x267 <= 1
 0 <= x268 <= 1
 0 <= x269 <= 1
 0 <= x270 <= 1
 0 <= x271 <= 1
 0 <= x272 <= 1
 0 <= x273 <= 1
 0 <= x274 <= 1
 0 <= x275 <= 1
 0 <= x276 <= 1
 0 <= x277 <= 1
 0 <= x278 <= 1
 0 <= x279 <= 1
 0 <= x280 <= 1
 0 <= x281 <= 1
 0 <= x282 <= 1
 0 <= x283 <= 1
 0 <= x284 <= 1
 0 <= x285 <= 1
 0 <= x286 <= 1
 0 <= x287 <= 1
 0 <= x288 <= 1
 0 <= x289 <= 1
 0 <= x290 <= 1
 0 <= x291 <= 1
 0 <= x292 <= 1
 0 <= x293 <= 1
 0 <= x294 <= 1
 0 <= x295 <= 1
 0 <= x296 <= 1
 0 <= x297 <= 1
 0 <= x298 <= 1
 0 <= x299 <= 1
 0 <= x300 <= 1
 0 <= x301 <= 1
 0 <= x302 <= 1
 0 <= x303 <= 1
 0 <= x304 <= 1
 0 <= x305 <= 1
 0 <= x306 <= 1
 0 <= x307 <= 1
 0 <= x308 <= 1
 0 <= x309 <= 1
 0 <= x310 <= 1
 0 <= x311 <= 1
 0 <= x312 <= 1
 0 <= x313 <= 1
 0 <= x314 <= 1
 0 <= x315 <= 1
 0 <= x316 <= 1
 0 <= x317 <= 1
 0 <= x318 <= 1
 0 <= x319 <= 1
 0 <= x320 <= 1
 0 <= x321 <= 1
 0 <= x322 <= 1
 0 <= x323 <= 1
 0 <= x324 <= 1
 0 <= x325 <= 1
 0 <= x326 <= 1
 0 <= x327 <= 1
 0 <= x328 <= 1
 0 <= x329 <= 1
 0 <= x330 <= 1
 0 <= x331 <= 1
 0 <= x332 <= 1
 0 <= x333 <= 1
 0 <= x334 <= 1
 0 <= x335 <= 1
 0 <= x336 <= 1
 0 <= x337 <= 1
 0 <= x338 <= 1
 0 <= x339 <= 1
 0 <= x340 <= 1
 0 <= x341 <= 1
 0 <= x342 <= 1
 0 <= x343 <= 1
 0 <= x344 <= 1
 0 <= x345 <= 1
 0 <= x346 <= 1
 0 <= x347 <= 1
 0 <= x348 <= 1
 0 <= x349 <= 1
 0 <= x350 <= 1
 0 <= x351 <= 1
 0 <= x352 <= 1
 0 <= x353 <= 1
 0 <= x354 <= 1
 0 <= x355 <= 1
 0 <= x356 <= 1
 0 <= x357 <= 1
 0 <= x358 <= 1
 0 <= x359 <= 1
 0 <= x360 <= 1
 0 <= x361 <= 1
 0 <= x362 <= 1
 0 <= x363 <= 1
 0 <= x364 <= 1
 0 <= x365 <= 1
 0 <= x366 <= 1
 0 <= x367 <= 1
 0 <= x368 <= 1
 0 <= x369 <= 1
 0 <= x370 <= 1
 0 <= x371 <= 1
 0 <= x372 <= 1
 0 <= x373 <= 1
 0 <= x374 <= 1
 0 <= x375 <= 1
 0 <= x376 <= 1
 0 <= x377 <= 1
 0 <= x378 <= 1
 0 <= x379 <= 1
 0 <= x380 <= 1
 0 <= x381 <= 1
 0 <= x382 <= 1
 0 <= x383 <= 1
 0 <= x384 <= 1
 0 <= x385 <= 1
 0 <= x386 <= 1
 0 <= x387 <= 1
 0 <= x388 <= 1
 0 <= x389 <= 1
 0 <= x390 <= 1
 0 <= x391 <= 1
 0 <= x392 <= 1
 0 <= x393 <= 1
 0 <= x394 <= 1
 0 <= x395 <= 1
 0 <= x396 <= 1
 0 <= x397 <= 1
 0 <= x398 <= 1
 0 <= x399 <= 1
 0 <= x400 <= 1
 0 <= x401 <= 1
 0 <= x402 <= 1
 0 <= x403 <= 1
 0 <= x404 <= 1
 0 <= x405 <= 1
 0 <= x406 <= 1
 0 <= x407 <= 1
 0 <= x408 <= 1
 0 <= x409 <= 1
 0 <= x410 <= 1
 0 <= x411 <= 1
 0 <= x412 <= 1
 0 <= x413 <= 1
 0 <= x414 <= 1
 0 <= x415 <= 1
 0 <= x416 <= 1
 0 <= x417 <= 1
 0 <= x418 <= 1
 0 <= x419 <= 1
 0 <= x420 <= 1
 0 <= x421 <= 1
 0 <= x422 <= 1
 0 <= x423 <= 1
 0 <= x424 <= 1
 0 <= x425 <= 1
 0 <= x426 <= 1
 0 <= x427 <= 1
 0 <= x428 <= 1
 0 <= x429 <= 1
 0 <= x430 <= 1
 0 <= x431 <= 1
 0 <= x432 <= 1
 0 <= x433 <= 1
 0 <= x434 <= 1
 0 <= x435 <= 1
 0 <= x436 <= 1
 0 <= x437 <= 1
 0 <= x438 <= 1
 0 <= x439 <= 1
 0 <= x440 <= 1
 0 <= x441 <= 1
 0 <= x442 <= 1
 0 <= x443 <= 1
 0 <= x444 <= 1
 0 <= x445 <= 1
 0 <= x446 <= 1
 0 <= x447 <= 1
 0 <= x448 <= 1
 0 <= x449 <= 1
 0 <= x450 <= 1
 0 <= x451 <= 1
 0 <= x452 <= 1
 0 <= x453 <= 1
 0 <= x454 <= 1
 0 <= x455 <= 1
 0 <= x456 <= 1
 0 <= x457 <= 1
 0 <= x458 <= 1
 0 <= x459 <= 1
 0 <= x460 <= 1
 0 <= x461 <= 1
 0 <= x462 <= 1
 0 <= x463 <= 1
 0 <= x464 <= 1
 0 <= x465 <= 1
 0 <= x466 <= 1
 0 <= x467 <= 1
 0 <= x468 <= 1
 0 <= x469 <= 1
 0 <= x470 <= 1
 0 <= x471 <= 1
 0 <= x472 <= 1
 0 <= x473 <= 1
 0 <= x474 <= 1
 0 <= x475 <= 1
 0 <= x476 <= 1
 0 <= x477 <= 1
 0 <= x478 <= 1
 0 <= x479 <= 1
 0 <= x480 <= 1
 0 <= x481 <= 1
 0 <= x482 <= 1
 0 <= x483 <= 1
 0 <= x484 <= 1
 0 <= x485 <= 1
 0 <= x486 <= 1
 0 <= x487 <= 1
 0 <= x488 <= 1
 0 <= x489 <= 1
 0 <= x490 <= 1
 0 <= x491 <= 1
 0 <= x492 <= 1
 0 <= x493 <= 1
 0 <= x494 <= 1
 0 <= x495 <= 1
 0 <= x496 <= 1
 0 <= x497 <= 1
 0 <= x498 <= 1
 0 <= x499 <= 1
 0 <= x500 <= 1
 0 <= x501 <= 1
 0 <= x502 <= 1
 0 <= x503 <= 1
 0 <= x504 <= 1
 0 <= x505 <= 1
 0 <= x506 <= 1
 0 <= x507 <= 1
 0 <= x508 <= 1
 0 <= x509 <= 1
 0 <= x510 <= 1
 0 <= x511 <= 1
 0 <= x512 <= 1
 0 <= x513 <= 1
 0 <= x514 <= 1
 0 <= x515 <= 1
 0 <= x516 <= 1
 0 <= x517 <= 1
 0 <= x518 <= 1
 0 <= x519 <= 1
 0 <= x520 <= 1
 0 <= x521 <= 1
 0 <= x522 <= 1
 0 <= x523 <= 1
 0 <= x524 <= 1
 0 <= x525 <= 1
 0 <= x526 <= 1
 0 <= x527 <= 1
 0 <= x528 <= 1
 0 <= x529 <= 1
 0 <= x530 <= 1
 0 <= x531 <= 1
 0 <= x532 <= 1
 0 <= x533 <= 1
 0 <= x534 <= 1
 0 <= x535 <= 1
 0 <= x536 <= 1
 0 <= x537 <= 1
 0 <= x538 <= 1
 0 <= x539 <= 1
 0 <= x540 <= 1
 0 <= x541 <= 1
 0 <= x542 <= 1
 0 <= x543 <= 1
 0 <= x544 <= 1
 0 <= x545 <= 1
 0 <= x546 <= 1
 0 <= x547 <= 1
 0 <= x548 <= 1
 0 <= x549 <= 1
 0 <= x550 <= 1
 0 <= x551 <= 1
 0 <= x552 <= 1
 0 <= x553 <= 1
 0 <= x554 <= 1
 0 <= x555 <= 1
 0 <= x556 <= 1
 0 <= x557 <= 1
 0 <= x558 <= 1
 0 <= x559 <= 1
 0 <= x560 <= 1
 0 <= x561 <= 1
 0 <= x562 <= 1
 0 <= x563 <= 1
 0 <= x564 <= 1
 0 <= x565 <= 1
 0 <= x566 <= 1
 0 <= x567 <= 1
 0 <= x568 <= 1
 0 <= x569 <= 1
 0 <= x570 <= 1
 0 <= x571 <= 1
 0 <= x572 <= 1
 0 <= x573 <= 1
 0 <= x574 <= 1
 0 <= x575 <= 1
 0 <= x576 <= 1
 0 <= x577 <= 1
 0 <= x578 <= 1
 0 <= x579 <= 1
 0 <= x580 <= 1
 0 <= x581 <= 1
 0 <= x582 <= 1
 0 <= x583 <= 1
 0 <= x584 <= 1
 0 <= x585 <= 1
 0 <= x586 <= 1
 0 <= x587 <= 1
 0 <= x588 <= 1
 0 <= x589 <= 1
 0 <= x590 <= 1
 0 <= x591 <= 1
 0 <= x592 <= 1
 0 <= x593 <= 1
 0 <= x594 <= 1
 0 <= x595 <= 1
 0 <= x596 <= 1
 0 <= x597 <= 1
 0 <= x598 <= 1
 0 <= x599 <= 1
 0 <= x600 <= 1
 0 <= x601 <= 1
 0 <= x602 <= 1
 0 <= x603 <= 1
 0 <= x604 <= 1
 0 <= x605 <= 1
 0 <= x606 <= 1
 0 <= x607 <= 1
 0 <= x608 <= 1
 0 <= x609 <= 1
 0 <= x610 <= 1
 0 <= x611 <= 1
 0 <= x612 <= 1
 0 <= x613 <= 1
 0 <= x614 <= 1
 0 <= x615 <= 1
 0 <= x616 <= 1
 0 <= x617 <= 1
 0 <= x618 <= 1
 0 <= x619 <= 1
 0 <= x620 <= 1
 0 <= x621 <= 1
 0 <= x622 <= 1
 0 <= x623 <= 1
 0 <= x624 <= 1
 0 <= x625 <= 1
 0 <= x626 <= 1
 0 <= x627 <= 1
 0 <= x628 <= 1
 0 <= x629 <= 1
 0 <= x630 <= 1
 0 <= x631 <= 1
 0 <= x632 <= 1
 0 <= x633 <= 1
 0 <= x634 <= 1
 0 <= x635 <= 1
 0 <= x636 <= 1
 0 <= x637 <= 1
 0 <= x638 <= 1
 0 <= x639 <= 1
 0 <= x640 <= 1
 0 <= x641 <= 1
 0 <= x642 <= 1
 0 <= x643 <= 1
 0 <= x644 <= 1
 0 <= x645 <= 1
 0 <= x646 <= 1
 0 <= x647 <= 1
 0 <= x648 <= 1
 0 <= x649 <= 1
 0 <= x650 <= 1
 0 <= x651 <= 1
 0 <= x652 <= 1
 0 <= x653 <= 1
 0 <= x654 <= 1
 0 <= x655 <= 1
 0 <= x656 <= 1
 0 <= x657 <= 1
 0 <= x658 <= 1
 0 <= x659 <= 1
 0 <= x660 <= 1
Binaries
 x601  x602  x603  x604  x605  x606  x607  x608  x609  x610  x611  x612  x613 
 x614  x615  x616  x617  x618  x619  x620  x621  x622  x623  x624  x625  x626 
 x627  x628  x629  x630  x631  x632  x633  x634  x635  x636  x637  x638  x639 
 x640  x641  x642  x643  x644  x645  x646  x647  x648  x649  x650  x651  x652 
 x653  x654  x655  x656  x657  x658  x659  x660 
End
